750
1000
700
700
699
697
696
696
695
694
693
693
693
693
692
691
690
689
689
688
687
687
686
684
684
683
683
681
679
679
679
678
678
678
678
675
675
673
673
673
672
672
671
671
670
670
670
670
669
668
668
667
667
667
666
665
664
663
662
661
661
660
659
656
656
655
655
655
654
653
653
653
653
653
652
652
651
651
651
650
650
647
647
647
646
646
645
643
641
640
640
638
638
637
637
637
637
637
636
636
635
635
634
633
632
632
632
631
630
630
630
629
629
629
628
628
627
625
624
622
622
621
620
620
618
618
617
616
615
614
612
611
611
611
610
609
608
608
607
607
607
607
607
606
605
605
605
604
602
602
602
601
601
600
600
599
598
597
597
597
596
595
594
593
592
592
591
591
590
589
589
587
586
586
586
586
586
585
585
584
583
583
583
582
582
582
582
582
581
580
580
579
578
577
577
575
574
574
574
573
573
572
571
571
570
570
567
567
567
566
565
565
564
563
563
561
561
560
559
559
559
558
558
558
557
556
556
555
555
554
552
551
550
548
547
547
547
546
546
546
545
543
543
541
541
540
539
537
537
536
536
536
535
535
534
533
533
532
531
529
528
527
526
525
522
522
522
522
522
521
520
520
519
518
517
516
516
515
515
514
514
514
513
512
512
512
511
510
510
509
508
506
505
505
505
504
503
503
502
501
500
500
500
499
496
494
494
491
491
490
490
489
489
488
487
486
484
483
483
482
481
479
479
479
479
478
478
477
477
476
475
474
474
473
473
473
472
472
471
470
469
469
468
467
467
467
467
466
466
466
466
465
465
465
465
463
463
462
462
461
461
460
459
459
458
457
456
455
455
454
454
454
453
452
452
451
448
448
447
447
446
446
443
442
442
440
440
440
438
437
436
436
435
434
432
431
430
430
429
428
427
427
427
426
426
425
423
422
422
421
421
421
420
420
419
418
418
418
418
418
417
415
414
413
413
412
411
410
410
409
409
408
408
406
406
406
405
404
403
403
403
402
402
401
401
400
399
399
399
397
396
395
392
392
392
391
391
391
390
390
389
389
389
388
387
387
386
386
385
385
384
382
380
380
380
380
378
377
377
376
376
375
374
372
372
371
369
369
369
368
367
367
366
366
365
365
361
360
360
360
360
359
359
359
356
356
356
355
355
355
351
351
351
351
349
348
348
348
346
346
345
345
344
344
344
344
342
341
341
341
340
340
338
337
337
336
336
335
334
333
333
333
333
333
333
332
331
330
329
329
328
328
325
324
323
323
322
322
322
320
320
319
319
319
317
317
317
314
312
312
311
310
307
307
307
307
306
306
305
305
305
305
305
304
304
304
303
300
300
300
300
299
299
298
298
297
297
297
296
294
294
293
293
293
293
293
290
290
289
289
288
287
287
286
285
285
285
285
285
284
283
283
282
281
281
280
280
280
278
276
275
275
273
272
272
272
272
271
271
271
269
268
268
267
266
266
265
263
263
263
262
261
261
260
260
259
259
259
258
257
257
256
255
254
254
253
253
251
251
250
250
249
249
248
248
248
248
247
246
244
243
242
242
242
242
241
241
240
240
239
239
239
236
236
236
235
235
235
234
234
234
233
233
231
230
230
229
228
228
228
227
225
225
224
223
222
222
220
219
219
219
218
218
217
216
215
215
215
214
214
213
213
211
211
211
211
210
209
209
209
209
208
208
208
207
206
205
205
205
204
203
203
